nN = 8;
nR = 40;
nH = 2;

a = [[24, 23, 16, 21, 15, 23, 24, 19, 21, 19, 18, 21, 20, 16, 21, 15, 20, 25, 21, 24, 24, 19, 22, 19, 22, 15, 23, 24, 18, 21, 22, 25, 18, 24, 22, 16, 18, 23, 21, 19], [22, 23, 25, 19, 18, 21, 22, 24, 23, 16, 19, 23, 15, 25, 20, 21, 17, 24, 24, 25, 25, 23, 19, 23, 21, 16, 21, 15, 16, 17, 19, 17, 19, 22, 25, 21, 25, 18, 21, 25], [21, 17, 23, 15, 20, 25, 24, 22, 25, 15, 18, 21, 17, 25, 20, 18, 21, 24, 15, 25, 18, 15, 22, 24, 24, 23, 23, 17, 21, 20, 16, 21, 23, 17, 18, 25, 24, 21, 25, 25], [22, 18, 15, 21, 16, 24, 15, 18, 20, 22, 17, 23, 25, 21, 22, 21, 15, 23, 16, 23, 16, 17, 25, 15, 15, 17, 15, 19, 17, 25, 23, 25, 22, 23, 17, 24, 15, 16, 16, 17], [25, 19, 24, 25, 21, 15, 15, 15, 25, 18, 19, 21, 20, 18, 19, 20, 18, 18, 16, 20, 23, 25, 23, 16, 21, 18, 16, 15, 15, 24, 18, 20, 21, 18, 23, 24, 17, 16, 20, 18], [17, 21, 22, 16, 15, 23, 20, 21, 16, 17, 25, 18, 16, 17, 15, 22, 24, 21, 16, 23, 23, 20, 17, 15, 22, 22, 21, 19, 15, 16, 25, 15, 20, 22, 22, 25, 18, 25, 20, 18], [20, 18, 22, 18, 15, 20, 23, 21, 17, 15, 16, 18, 25, 22, 22, 18, 23, 23, 15, 21, 25, 22, 23, 20, 21, 15, 16, 22, 21, 25, 25, 25, 19, 21, 25, 19, 21, 20, 24, 20], [24, 17, 22, 17, 15, 17, 17, 25, 19, 21, 15, 22, 18, 19, 25, 21, 22, 20, 16, 24, 20, 19, 17, 16, 20, 23, 16, 15, 17, 25, 25, 17, 25, 24, 18, 24, 16, 22, 16, 17]];
c = [[[0, 0, 0, 0, 0, 0, 0, 0, 0, 0, 0, 0, 0, 0, 0, 0, 0, 0, 0, 0, 0, 0, 0, 0, 0, 0, 0, 0, 0, 0, 0, 0, 0, 0, 0, 0, 0, 0, 0, 0], [35, 44, 36, 49, 49, 32, 46, 45, 48, 41, 30, 40, 49, 50, 45, 40, 40, 36, 48, 41, 38, 46, 34, 38, 31, 42, 44, 42, 43, 48, 39, 30, 50, 46, 47, 50, 50, 34, 31, 42], [40, 47, 41, 41, 35, 30, 37, 37, 50, 34, 39, 45, 38, 41, 45, 47, 34, 38, 48, 49, 32, 49, 36, 48, 33, 31, 41, 37, 40, 30, 46, 48, 39, 47, 31, 49, 33, 35, 32, 38], [49, 43, 31, 34, 39, 43, 41, 34, 31, 44, 47, 50, 31, 41, 44, 43, 31, 38, 50, 35, 45, 43, 49, 47, 34, 34, 30, 30, 48, 50, 42, 32, 33, 36, 42, 42, 36, 34, 32, 46], [36, 41, 38, 31, 37, 35, 37, 34, 47, 33, 42, 34, 40, 38, 47, 37, 35, 47, 35, 47, 39, 44, 49, 37, 34, 48, 47, 40, 46, 46, 35, 32, 44, 35, 43, 45, 49, 45, 50, 50], [38, 34, 32, 44, 44, 41, 34, 32, 44, 43, 41, 40, 45, 34, 44, 34, 49, 47, 43, 42, 42, 43, 33, 37, 33, 36, 43, 41, 31, 37, 46, 31, 44, 47, 49, 34, 32, 48, 42, 47], [44, 49, 47, 42, 37, 41, 36, 46, 33, 40, 37, 40, 37, 40, 35, 45, 31, 34, 40, 40, 46, 41, 35, 34, 32, 43, 41, 48, 42, 37, 46, 33, 41, 36, 41, 36, 44, 48, 50, 43], [42, 49, 44, 48, 46, 35, 39, 34, 48, 36, 31, 39, 41, 31, 39, 49, 39, 36, 39, 43, 40, 44, 50, 46, 39, 43, 33, 30, 50, 50, 33, 33, 30, 32, 44, 49, 43, 32, 41, 48]], [[0, 0, 0, 0, 0, 0, 0, 0, 0, 0, 0, 0, 0, 0, 0, 0, 0, 0, 0, 0, 0, 0, 0, 0, 0, 0, 0, 0, 0, 0, 0, 0, 0, 0, 0, 0, 0, 0, 0, 0], [0, 0, 0, 0, 0, 0, 0, 0, 0, 0, 0, 0, 0, 0, 0, 0, 0, 0, 0, 0, 0, 0, 0, 0, 0, 0, 0, 0, 0, 0, 0, 0, 0, 0, 0, 0, 0, 0, 0, 0], [47, 49, 33, 49, 36, 34, 47, 44, 36, 43, 38, 50, 32, 48, 39, 44, 50, 35, 46, 37, 40, 34, 48, 41, 39, 40, 32, 41, 32, 30, 39, 42, 30, 32, 50, 49, 40, 34, 36, 39], [44, 34, 31, 45, 35, 48, 36, 31, 39, 48, 35, 33, 36, 50, 31, 49, 43, 48, 42, 47, 31, 46, 46, 42, 32, 38, 34, 40, 47, 35, 45, 40, 37, 49, 30, 44, 41, 45, 41, 44], [38, 31, 40, 31, 49, 44, 42, 35, 36, 40, 46, 34, 41, 32, 50, 37, 35, 31, 38, 48, 46, 30, 48, 41, 34, 44, 40, 40, 31, 45, 36, 32, 37, 40, 39, 46, 50, 44, 45, 43], [30, 42, 44, 49, 40, 31, 39, 48, 43, 48, 49, 31, 35, 42, 41, 48, 32, 44, 38, 49, 37, 37, 48, 34, 43, 47, 38, 50, 30, 34, 33, 40, 42, 50, 34, 34, 50, 47, 41, 41], [33, 46, 38, 41, 35, 44, 31, 48, 42, 30, 46, 50, 34, 32, 45, 37, 44, 35, 48, 42, 45, 48, 35, 32, 47, 44, 33, 35, 40, 47, 49, 44, 43, 47, 42, 33, 38, 41, 42, 33], [35, 40, 32, 47, 35, 49, 50, 31, 50, 44, 38, 39, 37, 40, 47, 46, 47, 50, 30, 48, 38, 45, 43, 46, 37, 38, 48, 46, 48, 42, 36, 35, 40, 45, 49, 49, 46, 41, 30, 38]], [[0, 0, 0, 0, 0, 0, 0, 0, 0, 0, 0, 0, 0, 0, 0, 0, 0, 0, 0, 0, 0, 0, 0, 0, 0, 0, 0, 0, 0, 0, 0, 0, 0, 0, 0, 0, 0, 0, 0, 0], [0, 0, 0, 0, 0, 0, 0, 0, 0, 0, 0, 0, 0, 0, 0, 0, 0, 0, 0, 0, 0, 0, 0, 0, 0, 0, 0, 0, 0, 0, 0, 0, 0, 0, 0, 0, 0, 0, 0, 0], [0, 0, 0, 0, 0, 0, 0, 0, 0, 0, 0, 0, 0, 0, 0, 0, 0, 0, 0, 0, 0, 0, 0, 0, 0, 0, 0, 0, 0, 0, 0, 0, 0, 0, 0, 0, 0, 0, 0, 0], [43, 47, 48, 42, 44, 32, 36, 33, 46, 46, 38, 45, 37, 31, 50, 45, 34, 47, 37, 45, 39, 45, 39, 41, 32, 38, 34, 46, 30, 30, 39, 34, 43, 30, 50, 34, 44, 48, 40, 49], [37, 33, 39, 30, 37, 42, 40, 42, 32, 37, 31, 49, 31, 34, 40, 46, 46, 37, 44, 30, 49, 42, 38, 44, 45, 49, 31, 44, 35, 33, 44, 35, 38, 39, 40, 38, 33, 50, 37, 31], [33, 37, 32, 31, 50, 33, 45, 46, 44, 40, 48, 43, 38, 41, 39, 40, 41, 36, 44, 37, 35, 45, 30, 35, 40, 48, 50, 43, 39, 34, 42, 41, 43, 50, 31, 49, 50, 42, 43, 34], [31, 37, 50, 50, 33, 35, 35, 42, 47, 45, 35, 48, 48, 32, 31, 37, 47, 50, 44, 43, 36, 31, 42, 31, 34, 33, 32, 46, 50, 49, 38, 44, 34, 49, 38, 38, 49, 34, 43, 47], [44, 46, 50, 32, 35, 32, 36, 49, 36, 42, 44, 37, 44, 44, 36, 50, 36, 45, 30, 31, 39, 48, 33, 45, 34, 35, 35, 30, 49, 46, 34, 41, 48, 31, 45, 48, 35, 34, 50, 36]], [[0, 0, 0, 0, 0, 0, 0, 0, 0, 0, 0, 0, 0, 0, 0, 0, 0, 0, 0, 0, 0, 0, 0, 0, 0, 0, 0, 0, 0, 0, 0, 0, 0, 0, 0, 0, 0, 0, 0, 0], [0, 0, 0, 0, 0, 0, 0, 0, 0, 0, 0, 0, 0, 0, 0, 0, 0, 0, 0, 0, 0, 0, 0, 0, 0, 0, 0, 0, 0, 0, 0, 0, 0, 0, 0, 0, 0, 0, 0, 0], [0, 0, 0, 0, 0, 0, 0, 0, 0, 0, 0, 0, 0, 0, 0, 0, 0, 0, 0, 0, 0, 0, 0, 0, 0, 0, 0, 0, 0, 0, 0, 0, 0, 0, 0, 0, 0, 0, 0, 0], [0, 0, 0, 0, 0, 0, 0, 0, 0, 0, 0, 0, 0, 0, 0, 0, 0, 0, 0, 0, 0, 0, 0, 0, 0, 0, 0, 0, 0, 0, 0, 0, 0, 0, 0, 0, 0, 0, 0, 0], [31, 49, 46, 47, 42, 47, 37, 33, 36, 45, 30, 50, 32, 40, 42, 44, 35, 33, 40, 34, 47, 45, 38, 41, 31, 30, 36, 35, 47, 47, 35, 40, 34, 48, 44, 50, 40, 42, 49, 39], [37, 37, 42, 47, 30, 34, 40, 47, 43, 45, 42, 44, 43, 30, 37, 36, 32, 43, 43, 44, 40, 49, 30, 33, 35, 43, 45, 36, 39, 46, 40, 42, 45, 49, 35, 38, 46, 30, 49, 40], [35, 50, 43, 45, 47, 36, 45, 45, 38, 43, 47, 36, 44, 46, 39, 48, 34, 50, 42, 47, 46, 37, 37, 44, 50, 38, 49, 33, 43, 45, 46, 43, 44, 42, 38, 39, 36, 39, 33, 40], [38, 47, 41, 30, 42, 32, 35, 31, 37, 37, 43, 47, 44, 35, 31, 32, 39, 38, 49, 47, 35, 37, 37, 37, 30, 31, 31, 50, 38, 50, 42, 47, 49, 34, 43, 38, 32, 35, 32, 36]], [[0, 0, 0, 0, 0, 0, 0, 0, 0, 0, 0, 0, 0, 0, 0, 0, 0, 0, 0, 0, 0, 0, 0, 0, 0, 0, 0, 0, 0, 0, 0, 0, 0, 0, 0, 0, 0, 0, 0, 0], [0, 0, 0, 0, 0, 0, 0, 0, 0, 0, 0, 0, 0, 0, 0, 0, 0, 0, 0, 0, 0, 0, 0, 0, 0, 0, 0, 0, 0, 0, 0, 0, 0, 0, 0, 0, 0, 0, 0, 0], [0, 0, 0, 0, 0, 0, 0, 0, 0, 0, 0, 0, 0, 0, 0, 0, 0, 0, 0, 0, 0, 0, 0, 0, 0, 0, 0, 0, 0, 0, 0, 0, 0, 0, 0, 0, 0, 0, 0, 0], [0, 0, 0, 0, 0, 0, 0, 0, 0, 0, 0, 0, 0, 0, 0, 0, 0, 0, 0, 0, 0, 0, 0, 0, 0, 0, 0, 0, 0, 0, 0, 0, 0, 0, 0, 0, 0, 0, 0, 0], [0, 0, 0, 0, 0, 0, 0, 0, 0, 0, 0, 0, 0, 0, 0, 0, 0, 0, 0, 0, 0, 0, 0, 0, 0, 0, 0, 0, 0, 0, 0, 0, 0, 0, 0, 0, 0, 0, 0, 0], [34, 46, 40, 33, 45, 30, 31, 50, 38, 39, 35, 47, 30, 36, 49, 46, 32, 38, 30, 40, 41, 41, 50, 45, 48, 30, 37, 35, 45, 50, 47, 33, 37, 37, 50, 41, 31, 35, 38, 32], [40, 30, 43, 32, 31, 43, 42, 39, 35, 38, 44, 50, 40, 50, 44, 43, 50, 32, 33, 33, 46, 32, 37, 38, 40, 42, 36, 42, 49, 39, 48, 33, 45, 30, 33, 32, 47, 48, 50, 43], [48, 35, 45, 42, 34, 42, 35, 43, 37, 38, 50, 31, 36, 41, 44, 30, 32, 33, 41, 37, 38, 36, 32, 39, 34, 40, 37, 44, 45, 33, 49, 45, 42, 48, 34, 45, 49, 37, 46, 33]], [[0, 0, 0, 0, 0, 0, 0, 0, 0, 0, 0, 0, 0, 0, 0, 0, 0, 0, 0, 0, 0, 0, 0, 0, 0, 0, 0, 0, 0, 0, 0, 0, 0, 0, 0, 0, 0, 0, 0, 0], [0, 0, 0, 0, 0, 0, 0, 0, 0, 0, 0, 0, 0, 0, 0, 0, 0, 0, 0, 0, 0, 0, 0, 0, 0, 0, 0, 0, 0, 0, 0, 0, 0, 0, 0, 0, 0, 0, 0, 0], [0, 0, 0, 0, 0, 0, 0, 0, 0, 0, 0, 0, 0, 0, 0, 0, 0, 0, 0, 0, 0, 0, 0, 0, 0, 0, 0, 0, 0, 0, 0, 0, 0, 0, 0, 0, 0, 0, 0, 0], [0, 0, 0, 0, 0, 0, 0, 0, 0, 0, 0, 0, 0, 0, 0, 0, 0, 0, 0, 0, 0, 0, 0, 0, 0, 0, 0, 0, 0, 0, 0, 0, 0, 0, 0, 0, 0, 0, 0, 0], [0, 0, 0, 0, 0, 0, 0, 0, 0, 0, 0, 0, 0, 0, 0, 0, 0, 0, 0, 0, 0, 0, 0, 0, 0, 0, 0, 0, 0, 0, 0, 0, 0, 0, 0, 0, 0, 0, 0, 0], [0, 0, 0, 0, 0, 0, 0, 0, 0, 0, 0, 0, 0, 0, 0, 0, 0, 0, 0, 0, 0, 0, 0, 0, 0, 0, 0, 0, 0, 0, 0, 0, 0, 0, 0, 0, 0, 0, 0, 0], [40, 38, 43, 48, 48, 43, 46, 42, 41, 43, 48, 39, 40, 34, 36, 37, 44, 30, 36, 32, 33, 41, 41, 32, 32, 50, 39, 45, 35, 48, 46, 50, 48, 35, 35, 42, 44, 46, 32, 38], [45, 41, 36, 37, 42, 49, 38, 38, 48, 50, 39, 32, 37, 32, 42, 46, 38, 36, 31, 42, 36, 30, 47, 34, 34, 49, 39, 49, 46, 47, 48, 41, 38, 45, 32, 34, 35, 35, 49, 33]], [[0, 0, 0, 0, 0, 0, 0, 0, 0, 0, 0, 0, 0, 0, 0, 0, 0, 0, 0, 0, 0, 0, 0, 0, 0, 0, 0, 0, 0, 0, 0, 0, 0, 0, 0, 0, 0, 0, 0, 0], [0, 0, 0, 0, 0, 0, 0, 0, 0, 0, 0, 0, 0, 0, 0, 0, 0, 0, 0, 0, 0, 0, 0, 0, 0, 0, 0, 0, 0, 0, 0, 0, 0, 0, 0, 0, 0, 0, 0, 0], [0, 0, 0, 0, 0, 0, 0, 0, 0, 0, 0, 0, 0, 0, 0, 0, 0, 0, 0, 0, 0, 0, 0, 0, 0, 0, 0, 0, 0, 0, 0, 0, 0, 0, 0, 0, 0, 0, 0, 0], [0, 0, 0, 0, 0, 0, 0, 0, 0, 0, 0, 0, 0, 0, 0, 0, 0, 0, 0, 0, 0, 0, 0, 0, 0, 0, 0, 0, 0, 0, 0, 0, 0, 0, 0, 0, 0, 0, 0, 0], [0, 0, 0, 0, 0, 0, 0, 0, 0, 0, 0, 0, 0, 0, 0, 0, 0, 0, 0, 0, 0, 0, 0, 0, 0, 0, 0, 0, 0, 0, 0, 0, 0, 0, 0, 0, 0, 0, 0, 0], [0, 0, 0, 0, 0, 0, 0, 0, 0, 0, 0, 0, 0, 0, 0, 0, 0, 0, 0, 0, 0, 0, 0, 0, 0, 0, 0, 0, 0, 0, 0, 0, 0, 0, 0, 0, 0, 0, 0, 0], [0, 0, 0, 0, 0, 0, 0, 0, 0, 0, 0, 0, 0, 0, 0, 0, 0, 0, 0, 0, 0, 0, 0, 0, 0, 0, 0, 0, 0, 0, 0, 0, 0, 0, 0, 0, 0, 0, 0, 0], [44, 30, 37, 37, 35, 44, 48, 31, 43, 39, 50, 37, 42, 43, 44, 37, 43, 44, 33, 30, 46, 43, 39, 46, 48, 33, 31, 45, 35, 34, 39, 48, 48, 48, 42, 38, 39, 50, 31, 40]], [[0, 0, 0, 0, 0, 0, 0, 0, 0, 0, 0, 0, 0, 0, 0, 0, 0, 0, 0, 0, 0, 0, 0, 0, 0, 0, 0, 0, 0, 0, 0, 0, 0, 0, 0, 0, 0, 0, 0, 0], [0, 0, 0, 0, 0, 0, 0, 0, 0, 0, 0, 0, 0, 0, 0, 0, 0, 0, 0, 0, 0, 0, 0, 0, 0, 0, 0, 0, 0, 0, 0, 0, 0, 0, 0, 0, 0, 0, 0, 0], [0, 0, 0, 0, 0, 0, 0, 0, 0, 0, 0, 0, 0, 0, 0, 0, 0, 0, 0, 0, 0, 0, 0, 0, 0, 0, 0, 0, 0, 0, 0, 0, 0, 0, 0, 0, 0, 0, 0, 0], [0, 0, 0, 0, 0, 0, 0, 0, 0, 0, 0, 0, 0, 0, 0, 0, 0, 0, 0, 0, 0, 0, 0, 0, 0, 0, 0, 0, 0, 0, 0, 0, 0, 0, 0, 0, 0, 0, 0, 0], [0, 0, 0, 0, 0, 0, 0, 0, 0, 0, 0, 0, 0, 0, 0, 0, 0, 0, 0, 0, 0, 0, 0, 0, 0, 0, 0, 0, 0, 0, 0, 0, 0, 0, 0, 0, 0, 0, 0, 0], [0, 0, 0, 0, 0, 0, 0, 0, 0, 0, 0, 0, 0, 0, 0, 0, 0, 0, 0, 0, 0, 0, 0, 0, 0, 0, 0, 0, 0, 0, 0, 0, 0, 0, 0, 0, 0, 0, 0, 0], [0, 0, 0, 0, 0, 0, 0, 0, 0, 0, 0, 0, 0, 0, 0, 0, 0, 0, 0, 0, 0, 0, 0, 0, 0, 0, 0, 0, 0, 0, 0, 0, 0, 0, 0, 0, 0, 0, 0, 0], [0, 0, 0, 0, 0, 0, 0, 0, 0, 0, 0, 0, 0, 0, 0, 0, 0, 0, 0, 0, 0, 0, 0, 0, 0, 0, 0, 0, 0, 0, 0, 0, 0, 0, 0, 0, 0, 0, 0, 0]]];

q = [[[24, 119], [18, 124], [10, 111], [18, 108], [12, 120], [16, 122], [20, 111], [24, 123], [13, 121], [25, 120], [24, 113], [14, 116], [14, 106], [14, 123], [14, 116], [17, 111], [19, 125], [19, 112], [12, 116], [23, 116], [21, 118], [15, 109], [15, 118], [25, 122], [6, 111], [23, 122], [10, 111], [18, 118], [19, 114], [23, 123], [22, 113], [22, 115], [8, 123], [21, 105], [22, 118], [17, 123], [22, 114], [25, 115], [19, 120], [7, 122]], [[21, 116], [9, 115], [20, 118], [7, 113], [22, 109], [18, 115], [11, 108], [10, 108], [20, 116], [24, 120], [25, 108], [17, 118], [19, 124], [22, 118], [8, 123], [18, 123], [21, 118], [7, 107], [24, 118], [7, 124], [17, 125], [24, 124], [6, 106], [24, 112], [16, 121], [13, 123], [6, 105], [7, 120], [21, 110], [6, 109], [7, 119], [6, 117], [6, 121], [17, 113], [7, 122], [10, 105], [23, 112], [21, 124], [19, 109], [13, 120]], [[11, 115], [20, 111], [21, 123], [18, 124], [14, 117], [10, 105], [14, 110], [20, 106], [20, 106], [10, 116], [17, 121], [11, 117], [19, 111], [12, 115], [25, 110], [6, 120], [20, 124], [21, 108], [11, 119], [6, 110], [12, 119], [8, 106], [12, 116], [8, 109], [6, 108], [19, 123], [23, 112], [13, 122], [12, 117], [7, 124], [18, 109], [16, 122], [22, 108], [18, 113], [14, 107], [23, 110], [24, 111], [25, 119], [5, 124], [6, 105]], [[13, 116], [16, 107], [16, 117], [13, 114], [15, 112], [15, 125], [12, 114], [20, 108], [20, 107], [20, 125], [23, 105], [19, 114], [24, 123], [24, 116], [6, 108], [20, 106], [17, 120], [23, 105], [13, 112], [16, 122], [21, 120], [16, 108], [25, 124], [19, 125], [8, 120], [22, 122], [16, 106], [5, 122], [22, 112], [21, 119], [10, 125], [11, 106], [20, 110], [16, 119], [5, 106], [15, 108], [7, 105], [11, 109], [9, 115], [17, 124]], [[11, 121], [21, 112], [19, 110], [23, 125], [16, 110], [12, 113], [5, 112], [16, 120], [6, 116], [8, 113], [18, 113], [9, 110], [13, 125], [8, 117], [25, 112], [17, 118], [14, 116], [12, 117], [22, 115], [11, 124], [15, 109], [15, 116], [15, 121], [23, 118], [9, 109], [12, 121], [16, 108], [20, 121], [19, 119], [17, 117], [6, 118], [9, 124], [13, 120], [17, 112], [15, 105], [14, 121], [9, 118], [23, 119], [15, 117], [16, 117]], [[10, 119], [23, 123], [15, 110], [22, 111], [12, 111], [5, 105], [10, 115], [18, 114], [10, 119], [6, 110], [24, 107], [15, 125], [25, 124], [17, 115], [24, 119], [9, 125], [25, 114], [7, 115], [12, 105], [17, 105], [10, 122], [8, 117], [15, 125], [12, 124], [8, 111], [9, 124], [11, 116], [8, 122], [18, 106], [17, 115], [7, 125], [18, 121], [23, 120], [20, 108], [19, 120], [13, 111], [20, 121], [24, 121], [11, 106], [25, 118]], [[9, 114], [14, 121], [20, 116], [21, 109], [9, 117], [13, 121], [20, 110], [10, 110], [9, 115], [20, 111], [18, 112], [7, 123], [18, 120], [5, 110], [25, 124], [21, 115], [21, 125], [6, 106], [8, 125], [5, 112], [17, 113], [25, 111], [10, 122], [20, 122], [20, 122], [7, 116], [8, 120], [9, 105], [21, 109], [7, 124], [14, 123], [25, 118], [5, 119], [23, 108], [17, 106], [22, 125], [13, 113], [16, 108], [20, 109], [20, 118]], [[14, 106], [8, 109], [14, 117], [8, 117], [7, 120], [24, 106], [24, 110], [15, 117], [15, 107], [13, 107], [12, 125], [23, 119], [13, 113], [24, 105], [25, 122], [19, 112], [25, 125], [17, 108], [9, 107], [11, 125], [16, 125], [11, 120], [25, 111], [21, 117], [23, 122], [24, 121], [12, 122], [6, 112], [7, 118], [25, 113], [24, 121], [24, 110], [18, 109], [24, 110], [15, 116], [24, 117], [9, 121], [5, 112], [8, 120], [16, 119]]];
Q = [[71, 467], [59, 464], [59, 458], [64, 459], [58, 465], [60, 465], [59, 463], [65, 462]];
